
Gurobi 9.1.2 (win64, Java) logging started Sat Nov  6 21:17:15 2021

Academic license - for non-commercial use only - expires 2022-10-30
Gurobi Optimizer version 9.1.2 build v9.1.2rc0 (win64)
Thread count: 6 physical cores, 12 logical processors, using up to 12 threads
Optimize a model with 60 rows, 800 columns and 1600 nonzeros
Model fingerprint: 0x414eaabe
Variable types: 0 continuous, 800 integer (800 binary)
Coefficient statistics:
  Matrix range     [1e+00, 1e+03]
  Objective range  [4e+02, 1e+03]
  Bounds range     [1e+00, 1e+00]
  RHS range        [1e+00, 1e+03]
Found heuristic solution: objective 13711.000000
Presolve removed 2 rows and 402 columns
Presolve time: 0.01s
Presolved: 58 rows, 398 columns, 795 nonzeros
Variable types: 0 continuous, 398 integer (398 binary)
Presolved: 58 rows, 398 columns, 795 nonzeros


Root relaxation: objective 2.144575e+04, 175 iterations, 0.00 seconds

    Nodes    |    Current Node    |     Objective Bounds      |     Work
 Expl Unexpl |  Obj  Depth IntInf | Incumbent    BestBd   Gap | It/Node Time

     0     0 21445.7510    0   29 13711.0000 21445.7510  56.4%     -    0s
H    0     0                    19136.000000 21445.7510  12.1%     -    0s
H    0     0                    19192.000000 21445.7510  11.7%     -    0s
H    0     0                    19271.000000 21445.7510  11.3%     -    0s
H    0     0                    19945.000000 21445.7510  7.52%     -    0s
H    0     0                    20279.000000 21445.7510  5.75%     -    0s
     0     0 21315.2845    0   26 20279.0000 21315.2845  5.11%     -    0s
H    0     0                    20341.000000 21315.2845  4.79%     -    0s
     0     0 21142.9742    0   36 20341.0000 21142.9742  3.94%     -    0s
     0     0 21141.4658    0   39 20341.0000 21141.4658  3.94%     -    0s
     0     0 21141.4173    0   40 20341.0000 21141.4173  3.93%     -    0s
     0     0 21064.0692    0   47 20341.0000 21064.0692  3.55%     -    0s
H    0     0                    20595.000000 21064.0692  2.28%     -    0s
     0     0 21054.8512    0   37 20595.0000 21054.8512  2.23%     -    0s
     0     0 21039.3127    0   27 20595.0000 21039.3127  2.16%     -    1s
H    0     0                    21001.000000 21039.3127  0.18%     -    1s
     0     0 21039.2567    0   28 21001.0000 21039.2567  0.18%     -    1s
     0     0 21006.4420    0   33 21001.0000 21006.4420  0.03%     -    1s
     0     0 21006.4420    0    8 21001.0000 21006.4420  0.03%     -    1s
     0     0     cutoff    0      21001.0000 21001.0000  0.00%     -    1s

Cutting planes:
  Gomory: 6
  Cover: 7
  Clique: 2
  MIR: 4
  StrongCG: 4
  RLT: 2

Explored 1 nodes (954 simplex iterations) in 1.41 seconds
Thread count was 12 (of 12 available processors)

Solution count 9: 21001 20595 20341 ... 13711

Optimal solution found (tolerance 1.00e-04)
Best objective 2.100100000000e+04, best bound 2.100100000000e+04, gap 0.0000%
